NAME          
ROWS
 N  OBJ
 L  c1
COLUMNS
    MARKER    'MARKER'                 'INTORG'
    x[1]      c1        973
    x[1]      OBJ       -713
    x[2]      c1        850
    x[2]      OBJ       -389
    x[3]      c1        194
    x[3]      OBJ       -657
    x[4]      c1        629
    x[4]      OBJ       -793
    x[5]      c1        293
    x[5]      OBJ       -592
    x[6]      c1        419
    x[6]      OBJ       -381
    x[7]      c1        854
    x[7]      OBJ       -86
    x[8]      c1        913
    x[8]      OBJ       -509
    x[9]      c1        909
    x[9]      OBJ       -353
    x[10]     c1        350
    x[10]     OBJ       -332
RHS
    rhs       c1        3192
RANGES
BOUNDS
 LO bounds    x[1]      0
 PL bounds    x[1]
 LO bounds    x[2]      0
 PL bounds    x[2]
 LO bounds    x[3]      0
 PL bounds    x[3]
 LO bounds    x[4]      0
 PL bounds    x[4]
 LO bounds    x[5]      0
 PL bounds    x[5]
 LO bounds    x[6]      0
 PL bounds    x[6]
 LO bounds    x[7]      0
 PL bounds    x[7]
 LO bounds    x[8]      0
 PL bounds    x[8]
 LO bounds    x[9]      0
 PL bounds    x[9]
 LO bounds    x[10]     0
 PL bounds    x[10]
ENDATA
